File : Instances/p62
Used 69s
35568

0 0 0 0 0 1 1 1 1 0 1 1 0 0 0 0 1 0 0 1 0 0 0 1 1 0 0 0 1 0 
7 19 24 24 5 6 16 28 16 28 19 28 10 23 28 7 23 10 16 24 7 16 5 24 10 11 24 19 19 5 19 19 19 16 28 6 8 8 24 16 7 8 6 19 8 19 8 16 19 10 24 16 24 16 8 6 11 8 7 7 19 24 7 8 10 11 5 28 28 11 7 6 19 8 23 23 10 23 8 16 10 5 8 7 6 10 6 5 24 7 28 6 7 11 5 8 11 6 5 28 28 16 11 7 19 24 6 24 16 8 19 6 11 6 11 8 28 7 28 8 8 11 28 19 19 16 5 11 19 10 28 24 11 10 23 8 23 8 28 10 11 16 11 11 7 5 24 16 11 7 24 28 23 28 8 11 5 16 8 8 23 24 10 24 5 28 5 6 23 16 5 8 19 10 19 5 24 10 6 10 5 16 5 19 11 8 28 23 28 16 5 16 6 6 7 6 7 5 10 19 
